VRPTWMS/instances/mip/freight/4/N4-C_DV10-C_SV50_F10_4_No_1.lp
\ N4-C_DV10-C_SV50_F10_4

Minimize
  180300.0 x_d0_c1 + 180300.0 z_d0_c1 + 206200.0 x_d0_c2 + 206200.0 z_d0_c2 + 273100.0 x_d0_c3 + 273100.0 z_d0_c3 + 139300.0 x_d0_c4 + 139300.0 z_d0_c4 + 328000.0 x_c1_c2 + 328000.0 x_c2_c1 + 328000.0 z_c1_c2 + 328000.0 z_c2_c1 + 138900.0 x_c1_c3 + 138900.0 x_c3_c1 + 138900.0 z_c1_c3 + 138900.0 z_c3_c1 + 269300.0 x_c1_c4 + 269300.0 x_c4_c1 + 269300.0 z_c1_c4 + 269300.0 z_c4_c1 + 339600.0 x_c2_c3 + 339600.0 x_c3_c2 + 339600.0 z_c2_c3 + 339600.0 z_c3_c2 + 67100.0 x_c2_c4 + 67100.0 x_c4_c2 + 67100.0 z_c2_c4 + 67100.0 z_c4_c2 + 300700.0 x_c3_c4 + 300700.0 x_c4_c3 + 300700.0 z_c3_c4 + 300700.0 z_c4_c3 + 180300.0 x_c1_dN + 180300.0 z_c1_dN + 206200.0 x_c2_dN + 206200.0 z_c2_dN + 273100.0 x_c3_dN + 273100.0 z_c3_dN + 139300.0 x_c4_dN + 139300.0 z_c4_dN + 1.0E7 x_d0_c1 + 1.0E7 z_d0_c1 + 1.0E7 x_d0_c2 + 1.0E7 z_d0_c2 + 1.0E7 x_d0_c3 + 1.0E7 z_d0_c3 + 1.0E7 x_d0_c4 + 1.0E7 z_d0_c4
Subject To
  Successor_DV_c1: x_c1_c2 + x_c1_c3 + x_c1_c4 + x_c1_dN = 1
  Successor_DV_c2: x_c2_c1 + x_c2_c3 + x_c2_c4 + x_c2_dN = 1
  Successor_DV_c3: x_c3_c1 + x_c3_c2 + x_c3_c4 + x_c3_dN = 1
  Successor_DV_c4: x_c4_c1 + x_c4_c2 + x_c4_c3 + x_c4_dN = 1
  Successor_SV_c1: z_c1_c2 + z_c1_c3 + z_c1_c4 + z_c1_dN <= 1
  Successor_SV_c2: z_c2_c1 + z_c2_c3 + z_c2_c4 + z_c2_dN <= 1
  Successor_SV_c3: z_c3_c1 + z_c3_c2 + z_c3_c4 + z_c3_dN <= 1
  Successor_SV_c4: z_c4_c1 + z_c4_c2 + z_c4_c3 + z_c4_dN <= 1
  Flow_DV_c1: x_d0_c1 + x_c2_c1 + x_c3_c1 + x_c4_c1 - x_c1_dN - x_c1_c2 - x_c1_c3 - x_c1_c4 = 0
  Flow_DV_c2: x_d0_c2 + x_c1_c2 + x_c3_c2 + x_c4_c2 - x_c2_dN - x_c2_c1 - x_c2_c3 - x_c2_c4 = 0
  Flow_DV_c3: x_d0_c3 + x_c1_c3 + x_c2_c3 + x_c4_c3 - x_c3_dN - x_c3_c1 - x_c3_c2 - x_c3_c4 = 0
  Flow_DV_c4: x_d0_c4 + x_c1_c4 + x_c2_c4 + x_c3_c4 - x_c4_dN - x_c4_c1 - x_c4_c2 - x_c4_c3 = 0
  Flow_SV_c1: z_d0_c1 + z_c2_c1 + z_c3_c1 + z_c4_c1 - z_c1_dN - z_c1_c2 - z_c1_c3 - z_c1_c4 = 0
  Flow_SV_c2: z_d0_c2 + z_c1_c2 + z_c3_c2 + z_c4_c2 - z_c2_dN - z_c2_c1 - z_c2_c3 - z_c2_c4 = 0
  Flow_SV_c3: z_d0_c3 + z_c1_c3 + z_c2_c3 + z_c4_c3 - z_c3_dN - z_c3_c1 - z_c3_c2 - z_c3_c4 = 0
  Flow_SV_c4: z_d0_c4 + z_c1_c4 + z_c2_c4 + z_c3_c4 - z_c4_dN - z_c4_c1 - z_c4_c2 - z_c4_c3 = 0
  travelDV_d0_c1: tauD_d0 - tauD_c1 + 1045075.0 x_d0_c1 <= 1000000.0
  travelDV_d0_c2: tauD_d0 - tauD_c2 + 1051550.0 x_d0_c2 <= 1000000.0
  travelDV_d0_c3: tauD_d0 - tauD_c3 + 1068275.0 x_d0_c3 <= 1000000.0
  travelDV_d0_c4: tauD_d0 - tauD_c4 + 1034825.0 x_d0_c4 <= 1000000.0
  travelDV_c1_c2: tauD_c1 - tauD_c2 + 1152000.0 x_c1_c2 + 80000.0 p_1 <= 1000000.0
  travelDV_c1_c3: tauD_c1 - tauD_c3 + 1104725.0 x_c1_c3 + 80000.0 p_1 <= 1000000.0
  travelDV_c1_c4: tauD_c1 - tauD_c4 + 1137325.0 x_c1_c4 + 80000.0 p_1 <= 1000000.0
  travelDV_c2_c1: tauD_c2 - tauD_c1 + 1172000.0 x_c2_c1 + 80000.0 p_2 <= 1000000.0
  travelDV_c2_c3: tauD_c2 - tauD_c3 + 1174900.0 x_c2_c3 + 80000.0 p_2 <= 1000000.0
  travelDV_c2_c4: tauD_c2 - tauD_c4 + 1106775.0 x_c2_c4 + 80000.0 p_2 <= 1000000.0
  travelDV_c3_c1: tauD_c3 - tauD_c1 + 1084725.0 x_c3_c1 + 80000.0 p_3 <= 1000000.0
  travelDV_c3_c2: tauD_c3 - tauD_c2 + 1134900.0 x_c3_c2 + 80000.0 p_3 <= 1000000.0
  travelDV_c3_c4: tauD_c3 - tauD_c4 + 1125175.0 x_c3_c4 + 80000.0 p_3 <= 1000000.0
  travelDV_c4_c1: tauD_c4 - tauD_c1 + 1117325.0 x_c4_c1 + 80000.0 p_4 <= 1000000.0
  travelDV_c4_c2: tauD_c4 - tauD_c2 + 1066775.0 x_c4_c2 + 80000.0 p_4 <= 1000000.0
  travelDV_c4_c3: tauD_c4 - tauD_c3 + 1125175.0 x_c4_c3 + 80000.0 p_4 <= 1000000.0
  TravelSV_d0_c1: tauS_d0 - tauS_c1 + 1000000.0 z_d0_c1 <= 954925.0
  TravelSV_d0_c2: tauS_d0 - tauS_c2 + 1000000.0 z_d0_c2 <= 948450.0
  TravelSV_d0_c3: tauS_d0 - tauS_c3 + 1000000.0 z_d0_c3 <= 931725.0
  TravelSV_d0_c4: tauS_d0 - tauS_c4 + 1000000.0 z_d0_c4 <= 965175.0
  TravelSV_d0_dN: tauS_d0 - tauS_dN + 1000000.0 z_d0_dN <= 1000000.0
  TravelSV_c1_c2: tauS_c1 - tauS_c2 + 1000000.0 z_c1_c2 <= 838000.0
  TravelSV_c1_c3: tauS_c1 - tauS_c3 + 1000000.0 z_c1_c3 <= 885275.0
  TravelSV_c1_c4: tauS_c1 - tauS_c4 + 1000000.0 z_c1_c4 <= 852675.0
  TravelSV_c1_dN: tauS_c1 - tauS_dN + 1000000.0 z_c1_dN <= 874925.0
  TravelSV_c2_c1: tauS_c2 - tauS_c1 + 1000000.0 z_c2_c1 <= 838000.0
  TravelSV_c2_c3: tauS_c2 - tauS_c3 + 1000000.0 z_c2_c3 <= 835100.0
  TravelSV_c2_c4: tauS_c2 - tauS_c4 + 1000000.0 z_c2_c4 <= 903225.0
  TravelSV_c2_dN: tauS_c2 - tauS_dN + 1000000.0 z_c2_dN <= 868450.0
  TravelSV_c3_c1: tauS_c3 - tauS_c1 + 1000000.0 z_c3_c1 <= 885275.0
  TravelSV_c3_c2: tauS_c3 - tauS_c2 + 1000000.0 z_c3_c2 <= 835100.0
  TravelSV_c3_c4: tauS_c3 - tauS_c4 + 1000000.0 z_c3_c4 <= 844825.0
  TravelSV_c3_dN: tauS_c3 - tauS_dN + 1000000.0 z_c3_dN <= 851725.0
  TravelSV_c4_c1: tauS_c4 - tauS_c1 + 1000000.0 z_c4_c1 <= 852675.0
  TravelSV_c4_c2: tauS_c4 - tauS_c2 + 1000000.0 z_c4_c2 <= 903225.0
  TravelSV_c4_c3: tauS_c4 - tauS_c3 + 1000000.0 z_c4_c3 <= 844825.0
  TravelSV_c4_dN: tauS_c4 - tauS_dN + 1000000.0 z_c4_dN <= 885175.0
  time_window_c1_e: tauD_c1 + 80000.0 o_1 >= 0.0
  time_window_c1_l: tauD_c1 + 80000.0 o_1 <= 1000000.0
  time_window_c2_e: tauD_c2 + 80000.0 o_2 >= 50000.0
  time_window_c2_l: tauD_c2 + 80000.0 o_2 <= 200000.0
  time_window_c3_e: tauD_c3 + 80000.0 o_3 >= 50000.0
  time_window_c3_l: tauD_c3 + 80000.0 o_3 <= 200000.0
  time_window_c4_e: tauD_c4 + 80000.0 o_4 >= 450000.0
  time_window_c4_l: tauD_c4 + 80000.0 o_4 <= 600000.0
  SyncA_c1_c2_c2: 70000.0 o_1 + 1000000.0 x_c1_c2 - tauD_c2 - 82000.0 z_c1_c2 + [ tauS_c2 * z_c1_c2 ] <= 918000.0
  SyncA_c1_c2_c3: 70000.0 o_1 + 1000000.0 x_c1_c2 - tauD_c2 - 34725.0 z_c1_c3 + [ tauS_c3 * z_c1_c3 ] <= 918000.0
  SyncA_c1_c2_c4: 70000.0 o_1 + 1000000.0 x_c1_c2 - tauD_c2 - 67325.0 z_c1_c4 + [ tauS_c4 * z_c1_c4 ] <= 918000.0
  SyncA_c1_c2_dN: 70000.0 o_1 + 1000000.0 x_c1_c2 - tauD_c2 - 45075.0 z_c1_dN + [ tauS_dN * z_c1_dN ] <= 918000.0
  SyncA_c1_c3_c2: 70000.0 o_1 + 1000000.0 x_c1_c3 - tauD_c3 - 82000.0 z_c1_c2 + [ tauS_c2 * z_c1_c2 ] <= 965275.0
  SyncA_c1_c3_c3: 70000.0 o_1 + 1000000.0 x_c1_c3 - tauD_c3 - 34725.0 z_c1_c3 + [ tauS_c3 * z_c1_c3 ] <= 965275.0
  SyncA_c1_c3_c4: 70000.0 o_1 + 1000000.0 x_c1_c3 - tauD_c3 - 67325.0 z_c1_c4 + [ tauS_c4 * z_c1_c4 ] <= 965275.0
  SyncA_c1_c3_dN: 70000.0 o_1 + 1000000.0 x_c1_c3 - tauD_c3 - 45075.0 z_c1_dN + [ tauS_dN * z_c1_dN ] <= 965275.0
  SyncA_c1_c4_c2: 70000.0 o_1 + 1000000.0 x_c1_c4 - tauD_c4 - 82000.0 z_c1_c2 + [ tauS_c2 * z_c1_c2 ] <= 932675.0
  SyncA_c1_c4_c3: 70000.0 o_1 + 1000000.0 x_c1_c4 - tauD_c4 - 34725.0 z_c1_c3 + [ tauS_c3 * z_c1_c3 ] <= 932675.0
  SyncA_c1_c4_c4: 70000.0 o_1 + 1000000.0 x_c1_c4 - tauD_c4 - 67325.0 z_c1_c4 + [ tauS_c4 * z_c1_c4 ] <= 932675.0
  SyncA_c1_c4_dN: 70000.0 o_1 + 1000000.0 x_c1_c4 - tauD_c4 - 45075.0 z_c1_dN + [ tauS_dN * z_c1_dN ] <= 932675.0
  SyncA_c1_dN_c2: 70000.0 o_1 + 1000000.0 x_c1_dN - tauD_dN - 82000.0 z_c1_c2 + [ tauS_c2 * z_c1_c2 ] <= 954925.0
  SyncA_c1_dN_c3: 70000.0 o_1 + 1000000.0 x_c1_dN - tauD_dN - 34725.0 z_c1_c3 + [ tauS_c3 * z_c1_c3 ] <= 954925.0
  SyncA_c1_dN_c4: 70000.0 o_1 + 1000000.0 x_c1_dN - tauD_dN - 67325.0 z_c1_c4 + [ tauS_c4 * z_c1_c4 ] <= 954925.0
  SyncA_c1_dN_dN: 70000.0 o_1 + 1000000.0 x_c1_dN - tauD_dN - 45075.0 z_c1_dN + [ tauS_dN * z_c1_dN ] <= 954925.0
  SyncA_c2_c1_c1: 90000.0 o_2 + 1000000.0 x_c2_c1 - tauD_c1 - 82000.0 z_c2_c1 + [ tauS_c1 * z_c2_c1 ] <= 918000.0
  SyncA_c2_c1_c3: 90000.0 o_2 + 1000000.0 x_c2_c1 - tauD_c1 - 84900.0 z_c2_c3 + [ tauS_c3 * z_c2_c3 ] <= 918000.0
  SyncA_c2_c1_c4: 90000.0 o_2 + 1000000.0 x_c2_c1 - tauD_c1 - 16775.0 z_c2_c4 + [ tauS_c4 * z_c2_c4 ] <= 918000.0
  SyncA_c2_c1_dN: 90000.0 o_2 + 1000000.0 x_c2_c1 - tauD_c1 - 51550.0 z_c2_dN + [ tauS_dN * z_c2_dN ] <= 918000.0
  SyncA_c2_c3_c1: 90000.0 o_2 + 1000000.0 x_c2_c3 - tauD_c3 - 82000.0 z_c2_c1 + [ tauS_c1 * z_c2_c1 ] <= 915100.0
  SyncA_c2_c3_c3: 90000.0 o_2 + 1000000.0 x_c2_c3 - tauD_c3 - 84900.0 z_c2_c3 + [ tauS_c3 * z_c2_c3 ] <= 915100.0
  SyncA_c2_c3_c4: 90000.0 o_2 + 1000000.0 x_c2_c3 - tauD_c3 - 16775.0 z_c2_c4 + [ tauS_c4 * z_c2_c4 ] <= 915100.0
  SyncA_c2_c3_dN: 90000.0 o_2 + 1000000.0 x_c2_c3 - tauD_c3 - 51550.0 z_c2_dN + [ tauS_dN * z_c2_dN ] <= 915100.0
  SyncA_c2_c4_c1: 90000.0 o_2 + 1000000.0 x_c2_c4 - tauD_c4 - 82000.0 z_c2_c1 + [ tauS_c1 * z_c2_c1 ] <= 983225.0
  SyncA_c2_c4_c3: 90000.0 o_2 + 1000000.0 x_c2_c4 - tauD_c4 - 84900.0 z_c2_c3 + [ tauS_c3 * z_c2_c3 ] <= 983225.0
  SyncA_c2_c4_c4: 90000.0 o_2 + 1000000.0 x_c2_c4 - tauD_c4 - 16775.0 z_c2_c4 + [ tauS_c4 * z_c2_c4 ] <= 983225.0
  SyncA_c2_c4_dN: 90000.0 o_2 + 1000000.0 x_c2_c4 - tauD_c4 - 51550.0 z_c2_dN + [ tauS_dN * z_c2_dN ] <= 983225.0
  SyncA_c2_dN_c1: 90000.0 o_2 + 1000000.0 x_c2_dN - tauD_dN - 82000.0 z_c2_c1 + [ tauS_c1 * z_c2_c1 ] <= 948450.0
  SyncA_c2_dN_c3: 90000.0 o_2 + 1000000.0 x_c2_dN - tauD_dN - 84900.0 z_c2_c3 + [ tauS_c3 * z_c2_c3 ] <= 948450.0
  SyncA_c2_dN_c4: 90000.0 o_2 + 1000000.0 x_c2_dN - tauD_dN - 16775.0 z_c2_c4 + [ tauS_c4 * z_c2_c4 ] <= 948450.0
  SyncA_c2_dN_dN: 90000.0 o_2 + 1000000.0 x_c2_dN - tauD_dN - 51550.0 z_c2_dN + [ tauS_dN * z_c2_dN ] <= 948450.0
  SyncA_c3_c1_c1: 50000.0 o_3 + 1000000.0 x_c3_c1 - tauD_c1 - 34725.0 z_c3_c1 + [ tauS_c1 * z_c3_c1 ] <= 965275.0
  SyncA_c3_c1_c2: 50000.0 o_3 + 1000000.0 x_c3_c1 - tauD_c1 - 84900.0 z_c3_c2 + [ tauS_c2 * z_c3_c2 ] <= 965275.0
  SyncA_c3_c1_c4: 50000.0 o_3 + 1000000.0 x_c3_c1 - tauD_c1 - 75175.0 z_c3_c4 + [ tauS_c4 * z_c3_c4 ] <= 965275.0
  SyncA_c3_c1_dN: 50000.0 o_3 + 1000000.0 x_c3_c1 - tauD_c1 - 68275.0 z_c3_dN + [ tauS_dN * z_c3_dN ] <= 965275.0
  SyncA_c3_c2_c1: 50000.0 o_3 + 1000000.0 x_c3_c2 - tauD_c2 - 34725.0 z_c3_c1 + [ tauS_c1 * z_c3_c1 ] <= 915100.0
  SyncA_c3_c2_c2: 50000.0 o_3 + 1000000.0 x_c3_c2 - tauD_c2 - 84900.0 z_c3_c2 + [ tauS_c2 * z_c3_c2 ] <= 915100.0
  SyncA_c3_c2_c4: 50000.0 o_3 + 1000000.0 x_c3_c2 - tauD_c2 - 75175.0 z_c3_c4 + [ tauS_c4 * z_c3_c4 ] <= 915100.0
  SyncA_c3_c2_dN: 50000.0 o_3 + 1000000.0 x_c3_c2 - tauD_c2 - 68275.0 z_c3_dN + [ tauS_dN * z_c3_dN ] <= 915100.0
  SyncA_c3_c4_c1: 50000.0 o_3 + 1000000.0 x_c3_c4 - tauD_c4 - 34725.0 z_c3_c1 + [ tauS_c1 * z_c3_c1 ] <= 924825.0
  SyncA_c3_c4_c2: 50000.0 o_3 + 1000000.0 x_c3_c4 - tauD_c4 - 84900.0 z_c3_c2 + [ tauS_c2 * z_c3_c2 ] <= 924825.0
  SyncA_c3_c4_c4: 50000.0 o_3 + 1000000.0 x_c3_c4 - tauD_c4 - 75175.0 z_c3_c4 + [ tauS_c4 * z_c3_c4 ] <= 924825.0
  SyncA_c3_c4_dN: 50000.0 o_3 + 1000000.0 x_c3_c4 - tauD_c4 - 68275.0 z_c3_dN + [ tauS_dN * z_c3_dN ] <= 924825.0
  SyncA_c3_dN_c1: 50000.0 o_3 + 1000000.0 x_c3_dN - tauD_dN - 34725.0 z_c3_c1 + [ tauS_c1 * z_c3_c1 ] <= 931725.0
  SyncA_c3_dN_c2: 50000.0 o_3 + 1000000.0 x_c3_dN - tauD_dN - 84900.0 z_c3_c2 + [ tauS_c2 * z_c3_c2 ] <= 931725.0
  SyncA_c3_dN_c4: 50000.0 o_3 + 1000000.0 x_c3_dN - tauD_dN - 75175.0 z_c3_c4 + [ tauS_c4 * z_c3_c4 ] <= 931725.0
  SyncA_c3_dN_dN: 50000.0 o_3 + 1000000.0 x_c3_dN - tauD_dN - 68275.0 z_c3_dN + [ tauS_dN * z_c3_dN ] <= 931725.0
  SyncA_c4_c1_c1: 50000.0 o_4 + 1000000.0 x_c4_c1 - tauD_c1 - 67325.0 z_c4_c1 + [ tauS_c1 * z_c4_c1 ] <= 932675.0
  SyncA_c4_c1_c2: 50000.0 o_4 + 1000000.0 x_c4_c1 - tauD_c1 - 16775.0 z_c4_c2 + [ tauS_c2 * z_c4_c2 ] <= 932675.0
  SyncA_c4_c1_c3: 50000.0 o_4 + 1000000.0 x_c4_c1 - tauD_c1 - 75175.0 z_c4_c3 + [ tauS_c3 * z_c4_c3 ] <= 932675.0
  SyncA_c4_c1_dN: 50000.0 o_4 + 1000000.0 x_c4_c1 - tauD_c1 - 34825.0 z_c4_dN + [ tauS_dN * z_c4_dN ] <= 932675.0
  SyncA_c4_c2_c1: 50000.0 o_4 + 1000000.0 x_c4_c2 - tauD_c2 - 67325.0 z_c4_c1 + [ tauS_c1 * z_c4_c1 ] <= 983225.0
  SyncA_c4_c2_c2: 50000.0 o_4 + 1000000.0 x_c4_c2 - tauD_c2 - 16775.0 z_c4_c2 + [ tauS_c2 * z_c4_c2 ] <= 983225.0
  SyncA_c4_c2_c3: 50000.0 o_4 + 1000000.0 x_c4_c2 - tauD_c2 - 75175.0 z_c4_c3 + [ tauS_c3 * z_c4_c3 ] <= 983225.0
  SyncA_c4_c2_dN: 50000.0 o_4 + 1000000.0 x_c4_c2 - tauD_c2 - 34825.0 z_c4_dN + [ tauS_dN * z_c4_dN ] <= 983225.0
  SyncA_c4_c3_c1: 50000.0 o_4 + 1000000.0 x_c4_c3 - tauD_c3 - 67325.0 z_c4_c1 + [ tauS_c1 * z_c4_c1 ] <= 924825.0
  SyncA_c4_c3_c2: 50000.0 o_4 + 1000000.0 x_c4_c3 - tauD_c3 - 16775.0 z_c4_c2 + [ tauS_c2 * z_c4_c2 ] <= 924825.0
  SyncA_c4_c3_c3: 50000.0 o_4 + 1000000.0 x_c4_c3 - tauD_c3 - 75175.0 z_c4_c3 + [ tauS_c3 * z_c4_c3 ] <= 924825.0
  SyncA_c4_c3_dN: 50000.0 o_4 + 1000000.0 x_c4_c3 - tauD_c3 - 34825.0 z_c4_dN + [ tauS_dN * z_c4_dN ] <= 924825.0
  SyncA_c4_dN_c1: 50000.0 o_4 + 1000000.0 x_c4_dN - tauD_dN - 67325.0 z_c4_c1 + [ tauS_c1 * z_c4_c1 ] <= 965175.0
  SyncA_c4_dN_c2: 50000.0 o_4 + 1000000.0 x_c4_dN - tauD_dN - 16775.0 z_c4_c2 + [ tauS_c2 * z_c4_c2 ] <= 965175.0
  SyncA_c4_dN_c3: 50000.0 o_4 + 1000000.0 x_c4_dN - tauD_dN - 75175.0 z_c4_c3 + [ tauS_c3 * z_c4_c3 ] <= 965175.0
  SyncA_c4_dN_dN: 50000.0 o_4 + 1000000.0 x_c4_dN - tauD_dN - 34825.0 z_c4_dN + [ tauS_dN * z_c4_dN ] <= 965175.0
  SVFirst_c1_c2: tauS_c2 - tauD_c1 + 70000.0 o_1 - 1000000.0 z_c1_c2 >= -768000.0
  SVFirst_c1_c3: tauS_c3 - tauD_c1 + 70000.0 o_1 - 1000000.0 z_c1_c3 >= -815275.0
  SVFirst_c1_c4: tauS_c4 - tauD_c1 + 70000.0 o_1 - 1000000.0 z_c1_c4 >= -782675.0
  SVFirst_c1_dN:  tauS_dN - tauD_c1 + 70000.0 o_1 - 1000000.0 z_c1_dN >= -804925.0
  SVFirst_c2_c1: tauS_c1 - tauD_c2 + 90000.0 o_2 - 1000000.0 z_c2_c1 >= -748000.0
  SVFirst_c2_c3: tauS_c3 - tauD_c2 + 90000.0 o_2 - 1000000.0 z_c2_c3 >= -745100.0
  SVFirst_c2_c4: tauS_c4 - tauD_c2 + 90000.0 o_2 - 1000000.0 z_c2_c4 >= -813225.0
  SVFirst_c2_dN:  tauS_dN - tauD_c2 + 90000.0 o_2 - 1000000.0 z_c2_dN >= -778450.0
  SVFirst_c3_c1: tauS_c1 - tauD_c3 + 50000.0 o_3 - 1000000.0 z_c3_c1 >= -835275.0
  SVFirst_c3_c2: tauS_c2 - tauD_c3 + 50000.0 o_3 - 1000000.0 z_c3_c2 >= -785100.0
  SVFirst_c3_c4: tauS_c4 - tauD_c3 + 50000.0 o_3 - 1000000.0 z_c3_c4 >= -794825.0
  SVFirst_c3_dN:  tauS_dN - tauD_c3 + 50000.0 o_3 - 1000000.0 z_c3_dN >= -801725.0
  SVFirst_c4_c1: tauS_c1 - tauD_c4 + 50000.0 o_4 - 1000000.0 z_c4_c1 >= -802675.0
  SVFirst_c4_c2: tauS_c2 - tauD_c4 + 50000.0 o_4 - 1000000.0 z_c4_c2 >= -853225.0
  SVFirst_c4_c3: tauS_c3 - tauD_c4 + 50000.0 o_4 - 1000000.0 z_c4_c3 >= -794825.0
  SVFirst_c4_dN:  tauS_dN - tauD_c4 + 50000.0 o_4 - 1000000.0 z_c4_dN >= -835175.0
  Precedence_Swap_c1:  p_1 - z_d0_c1 - z_c2_c1 - z_c3_c1 - z_c4_c1 = 0
  Precedence_Swap_c2:  p_2 - z_d0_c2 - z_c1_c2 - z_c3_c2 - z_c4_c2 = 0
  Precedence_Swap_c3:  p_3 - z_d0_c3 - z_c1_c3 - z_c2_c3 - z_c4_c3 = 0
  Precedence_Swap_c4:  p_4 - z_d0_c4 - z_c1_c4 - z_c2_c4 - z_c3_c4 = 0
  Order_c1:  o_1 - p_1 <= 0
  Order_c2:  o_2 - p_2 <= 0
  Order_c3:  o_3 - p_3 <= 0
  Order_c4:  o_4 - p_4 <= 0
  WorkingTimeS_c1:  tauS_c1 <= 874925.0
  WorkingTimeS_c2:  tauS_c2 <= 868450.0
  WorkingTimeS_c3:  tauS_c3 <= 851725.0
  WorkingTimeS_c4:  tauS_c4 <= 885175.0
  FreightDV_c1_c2:  k_c2 - kDash_c1 - 100000.0 p_1 + 100000.0 x_c1_c2 + [ kDash_c1 * p_1 - kDash_c1 * o_1 + 100000.0 p_1 * o_1 ] <= 100000.0
  FreightDV_c1_c3:  k_c3 - kDash_c1 - 100000.0 p_1 + 100000.0 x_c1_c3 + [ kDash_c1 * p_1 - kDash_c1 * o_1 + 100000.0 p_1 * o_1 ] <= 100000.0
  FreightDV_c1_c4:  k_c4 - kDash_c1 - 100000.0 p_1 + 100000.0 x_c1_c4 + [ kDash_c1 * p_1 - kDash_c1 * o_1 + 100000.0 p_1 * o_1 ] <= 100000.0
  FreightDV_c1_dN:  k_dN - kDash_c1 - 100000.0 p_1 + 100000.0 x_c1_dN + [ kDash_c1 * p_1 - kDash_c1 * o_1 + 100000.0 p_1 * o_1 ] <= 100000.0
  FreightDV_c1:  kDash_c1 - k_c1 - 100000.0 o_1 + [ k_c1 * o_1 ] <= -10000.0
  FreightDV_c2_c1:  k_c1 - kDash_c2 - 100000.0 p_2 + 100000.0 x_c2_c1 + [ kDash_c2 * p_2 - kDash_c2 * o_2 + 100000.0 p_2 * o_2 ] <= 100000.0
  FreightDV_c2_c3:  k_c3 - kDash_c2 - 100000.0 p_2 + 100000.0 x_c2_c3 + [ kDash_c2 * p_2 - kDash_c2 * o_2 + 100000.0 p_2 * o_2 ] <= 100000.0
  FreightDV_c2_c4:  k_c4 - kDash_c2 - 100000.0 p_2 + 100000.0 x_c2_c4 + [ kDash_c2 * p_2 - kDash_c2 * o_2 + 100000.0 p_2 * o_2 ] <= 100000.0
  FreightDV_c2_dN:  k_dN - kDash_c2 - 100000.0 p_2 + 100000.0 x_c2_dN + [ kDash_c2 * p_2 - kDash_c2 * o_2 + 100000.0 p_2 * o_2 ] <= 100000.0
  FreightDV_c2:  kDash_c2 - k_c2 - 100000.0 o_2 + [ k_c2 * o_2 ] <= -30000.0
  FreightDV_c3_c1:  k_c1 - kDash_c3 - 100000.0 p_3 + 100000.0 x_c3_c1 + [ kDash_c3 * p_3 - kDash_c3 * o_3 + 100000.0 p_3 * o_3 ] <= 100000.0
  FreightDV_c3_c2:  k_c2 - kDash_c3 - 100000.0 p_3 + 100000.0 x_c3_c2 + [ kDash_c3 * p_3 - kDash_c3 * o_3 + 100000.0 p_3 * o_3 ] <= 100000.0
  FreightDV_c3_c4:  k_c4 - kDash_c3 - 100000.0 p_3 + 100000.0 x_c3_c4 + [ kDash_c3 * p_3 - kDash_c3 * o_3 + 100000.0 p_3 * o_3 ] <= 100000.0
  FreightDV_c3_dN:  k_dN - kDash_c3 - 100000.0 p_3 + 100000.0 x_c3_dN + [ kDash_c3 * p_3 - kDash_c3 * o_3 + 100000.0 p_3 * o_3 ] <= 100000.0
  FreightDV_c3:  kDash_c3 - k_c3 - 100000.0 o_3 + [ k_c3 * o_3 ] <= -30000.0
  FreightDV_c4_c1:  k_c1 - kDash_c4 - 100000.0 p_4 + 100000.0 x_c4_c1 + [ kDash_c4 * p_4 - kDash_c4 * o_4 + 100000.0 p_4 * o_4 ] <= 100000.0
  FreightDV_c4_c2:  k_c2 - kDash_c4 - 100000.0 p_4 + 100000.0 x_c4_c2 + [ kDash_c4 * p_4 - kDash_c4 * o_4 + 100000.0 p_4 * o_4 ] <= 100000.0
  FreightDV_c4_c3:  k_c3 - kDash_c4 - 100000.0 p_4 + 100000.0 x_c4_c3 + [ kDash_c4 * p_4 - kDash_c4 * o_4 + 100000.0 p_4 * o_4 ] <= 100000.0
  FreightDV_c4_dN:  k_dN - kDash_c4 - 100000.0 p_4 + 100000.0 x_c4_dN + [ kDash_c4 * p_4 - kDash_c4 * o_4 + 100000.0 p_4 * o_4 ] <= 100000.0
  FreightDV_c4:  kDash_c4 - k_c4 - 100000.0 o_4 + [ k_c4 * o_4 ] <= -30000.0
  FreightSV_c1_c2:  pi_c2 - pi_c1 - kDash_c1 + 200000.0 z_c1_c2 + [ kDash_c1 * o_1 - k_c1 * o_1 ] <= 100000.0
  FreightSV_c1_c3:  pi_c3 - pi_c1 - kDash_c1 + 200000.0 z_c1_c3 + [ kDash_c1 * o_1 - k_c1 * o_1 ] <= 100000.0
  FreightSV_c1_c4:  pi_c4 - pi_c1 - kDash_c1 + 200000.0 z_c1_c4 + [ kDash_c1 * o_1 - k_c1 * o_1 ] <= 100000.0
  FreightSV_c1_dN:  pi_dN - pi_c1 - kDash_c1 + 200000.0 z_c1_dN + [ kDash_c1 * o_1 - k_c1 * o_1 ] <= 100000.0
  FreightSV_c2_c1:  pi_c1 - pi_c2 - kDash_c2 + 200000.0 z_c2_c1 + [ kDash_c2 * o_2 - k_c2 * o_2 ] <= 100000.0
  FreightSV_c2_c3:  pi_c3 - pi_c2 - kDash_c2 + 200000.0 z_c2_c3 + [ kDash_c2 * o_2 - k_c2 * o_2 ] <= 100000.0
  FreightSV_c2_c4:  pi_c4 - pi_c2 - kDash_c2 + 200000.0 z_c2_c4 + [ kDash_c2 * o_2 - k_c2 * o_2 ] <= 100000.0
  FreightSV_c2_dN:  pi_dN - pi_c2 - kDash_c2 + 200000.0 z_c2_dN + [ kDash_c2 * o_2 - k_c2 * o_2 ] <= 100000.0
  FreightSV_c3_c1:  pi_c1 - pi_c3 - kDash_c3 + 200000.0 z_c3_c1 + [ kDash_c3 * o_3 - k_c3 * o_3 ] <= 100000.0
  FreightSV_c3_c2:  pi_c2 - pi_c3 - kDash_c3 + 200000.0 z_c3_c2 + [ kDash_c3 * o_3 - k_c3 * o_3 ] <= 100000.0
  FreightSV_c3_c4:  pi_c4 - pi_c3 - kDash_c3 + 200000.0 z_c3_c4 + [ kDash_c3 * o_3 - k_c3 * o_3 ] <= 100000.0
  FreightSV_c3_dN:  pi_dN - pi_c3 - kDash_c3 + 200000.0 z_c3_dN + [ kDash_c3 * o_3 - k_c3 * o_3 ] <= 100000.0
  FreightSV_c4_c1:  pi_c1 - pi_c4 - kDash_c4 + 200000.0 z_c4_c1 + [ kDash_c4 * o_4 - k_c4 * o_4 ] <= 100000.0
  FreightSV_c4_c2:  pi_c2 - pi_c4 - kDash_c4 + 200000.0 z_c4_c2 + [ kDash_c4 * o_4 - k_c4 * o_4 ] <= 100000.0
  FreightSV_c4_c3:  pi_c3 - pi_c4 - kDash_c4 + 200000.0 z_c4_c3 + [ kDash_c4 * o_4 - k_c4 * o_4 ] <= 100000.0
  FreightSV_c4_dN:  pi_dN - pi_c4 - kDash_c4 + 200000.0 z_c4_dN + [ kDash_c4 * o_4 - k_c4 * o_4 ] <= 100000.0
  FuelDV_d0_c1:  phi_c1 - phi_d0 + 112062.0 x_d0_c1 <= 100000.0
  FuelDV_d0_c2:  phi_c2 - phi_d0 + 113795.0 x_d0_c2 <= 100000.0
  FuelDV_d0_c3:  phi_c3 - phi_d0 + 118270.0 x_d0_c3 <= 100000.0
  FuelDV_d0_c4:  phi_c4 - phi_d0 + 109319.0 x_d0_c4 <= 100000.0
  FuelDV_c1_c2:  phi_c2 - phi_c1 + 121943.0 x_c1_c2 <= 100000.0
  FuelDV_c1_c3:  phi_c3 - phi_c1 + 109292.0 x_c1_c3 <= 100000.0
  FuelDV_c1_c4:  phi_c4 - phi_c1 + 118016.0 x_c1_c4 <= 100000.0
  FuelDV_c1_dN:  phi_dN - phi_c1 + 112062.0 x_c1_dN <= 100000.0
  FuelDV_c2_c1:  phi_c1 - phi_c2 + 121943.0 x_c2_c1 <= 100000.0
  FuelDV_c2_c3:  phi_c3 - phi_c2 + 122719.0 x_c2_c3 <= 100000.0
  FuelDV_c2_c4:  phi_c4 - phi_c2 + 104489.0 x_c2_c4 <= 100000.0
  FuelDV_c2_dN:  phi_dN - phi_c2 + 113795.0 x_c2_dN <= 100000.0
  FuelDV_c3_c1:  phi_c1 - phi_c3 + 109292.0 x_c3_c1 <= 100000.0
  FuelDV_c3_c2:  phi_c2 - phi_c3 + 122719.0 x_c3_c2 <= 100000.0
  FuelDV_c3_c4:  phi_c4 - phi_c3 + 120117.0 x_c3_c4 <= 100000.0
  FuelDV_c3_dN:  phi_dN - phi_c3 + 118270.0 x_c3_dN <= 100000.0
  FuelDV_c4_c1:  phi_c1 - phi_c4 + 118016.0 x_c4_c1 <= 100000.0
  FuelDV_c4_c2:  phi_c2 - phi_c4 + 104489.0 x_c4_c2 <= 100000.0
  FuelDV_c4_c3:  phi_c3 - phi_c4 + 120117.0 x_c4_c3 <= 100000.0
  FuelDV_c4_dN:  phi_dN - phi_c4 + 109319.0 x_c4_dN <= 100000.0
  WorkingTimeD_c1:  tauD_c1 + 80000.0 p_1 <= 884925.0
  WorkingTimeD_c2:  tauD_c2 + 80000.0 p_2 <= 858450.0
  WorkingTimeD_c3:  tauD_c3 + 80000.0 p_3 <= 881725.0
  WorkingTimeD_c4:  tauD_c4 + 80000.0 p_4 <= 915175.0
Bounds
0 <= kDash_c1 <= 100000.0
0 <= kDash_c2 <= 100000.0
0 <= kDash_c3 <= 100000.0
0 <= kDash_c4 <= 100000.0
0 <= k_c1 <= 100000.0
0 <= k_c2 <= 100000.0
0 <= k_c3 <= 100000.0
0 <= k_c4 <= 100000.0
0 <= k_dN <= 100000.0
0 <= phi_c1 <= 100000.0
0 <= phi_c2 <= 100000.0
0 <= phi_c3 <= 100000.0
0 <= phi_c4 <= 100000.0
0 <= phi_d0 <= 100000.0
0 <= phi_dN <= 100000.0
0 <= pi_c1 <= 500000.0
0 <= pi_c2 <= 500000.0
0 <= pi_c3 <= 500000.0
0 <= pi_c4 <= 500000.0
0 <= pi_dN <= 500000.0
0 <= tauD_c1 <= 1000000.0
0 <= tauD_c2 <= 1000000.0
0 <= tauD_c3 <= 1000000.0
0 <= tauD_c4 <= 1000000.0
0 <= tauD_d0 <= 1000000.0
0 <= tauD_dN <= 1000000.0
0 <= tauS_c1 <= 1000000.0
0 <= tauS_c2 <= 1000000.0
0 <= tauS_c3 <= 1000000.0
0 <= tauS_c4 <= 1000000.0
0 <= tauS_d0 <= 1000000.0
0 <= tauS_dN <= 1000000.0
Generals
  kDash_c1
  kDash_c2
  kDash_c3
  kDash_c4
  k_c1
  k_c2
  k_c3
  k_c4
  k_dN
  phi_c1
  phi_c2
  phi_c3
  phi_c4
  phi_d0
  phi_dN
  pi_c1
  pi_c2
  pi_c3
  pi_c4
  pi_dN
  tauD_c1
  tauD_c2
  tauD_c3
  tauD_c4
  tauD_d0
  tauD_dN
  tauS_c1
  tauS_c2
  tauS_c3
  tauS_c4
  tauS_d0
  tauS_dN
Binary
  o_1
  o_2
  o_3
  o_4
  p_1
  p_2
  p_3
  p_4
  x_c1_c2
  x_c1_c3
  x_c1_c4
  x_c1_dN
  x_c2_c1
  x_c2_c3
  x_c2_c4
  x_c2_dN
  x_c3_c1
  x_c3_c2
  x_c3_c4
  x_c3_dN
  x_c4_c1
  x_c4_c2
  x_c4_c3
  x_c4_dN
  x_d0_c1
  x_d0_c2
  x_d0_c3
  x_d0_c4
  z_c1_c2
  z_c1_c3
  z_c1_c4
  z_c1_dN
  z_c2_c1
  z_c2_c3
  z_c2_c4
  z_c2_dN
  z_c3_c1
  z_c3_c2
  z_c3_c4
  z_c3_dN
  z_c4_c1
  z_c4_c2
  z_c4_c3
  z_c4_dN
  z_d0_c1
  z_d0_c2
  z_d0_c3
  z_d0_c4
End
